Maximize
F 

Subject to
F - 20.0y20 - 15.0y269 - 20.0y238 - 10.0y77 - 10.0y209 - 5.0y287 - 10.0y196 - 15.0y185 - 5.0y154 - 5.0y125 - 10.0y60 - 10.0y78 - 5.0y225 - 15.0y150 - 5.0y268 - 15.0y186 - 10.0y295 - 20.0y230 - 15.0y15 - 15.0y128 - 10.0y117 - 20.0y129 - 15.0y145 - 5.0y294 - 20.0y7 = 0

x73x77x1 + x73x196x1 + x73x154x1 + x73x125x1 + x73x78x1 + x73x268x1 + x73x295x1 + x73x230x1 + x73x15x1 + x73x117x1 + x73x145x1 + x73x7x1 
<= 1
x181x77x1 + x181x196x1 + x181x154x1 + x181x125x1 + x181x78x1 + x181x268x1 + x181x295x1 + x181x230x1 + x181x15x1 + x181x117x1 + x181x145x1 + x181x7x1 
<= 1
x80x269x1 + x80x209x1 + x80x196x1 + x80x154x1 + x80x125x1 + x80x78x1 + x80x268x1 + x80x295x1 + x80x230x1 + x80x15x1 + x80x117x1 + x80x145x1 + x80x7x1 
<= 1
x114x20x2 + x114x238x2 + x114x287x2 + x114x60x2 + x114x186x2 + x114x295x2 + x114x128x2 + x114x129x2 
<= 1
x58x20x2 + x58x238x2 + x58x287x2 + x58x60x2 + x58x186x2 + x58x295x2 + x58x128x2 + x58x129x2 
<= 1
x16x20x2 + x16x238x2 + x16x287x2 + x16x60x2 + x16x186x2 + x16x295x2 + x16x128x2 + x16x129x2 
<= 2
x30x287x2 + x30x60x2 + x30x186x2 + x30x295x2 + x30x128x2 + x30x129x2 
<= 2
x80x287x2 + x80x60x2 + x80x186x2 + x80x295x2 + x80x128x2 + x80x129x2 
<= 1
x48x287x2 + x48x60x2 + x48x186x2 + x48x295x2 + x48x128x2 + x48x129x2 
<= 2
x205x209x3 + x205x185x3 + x205x154x3 + x205x125x3 + x205x60x3 + x205x225x3 + x205x150x3 + x205x15x3 + x205x128x3 + x205x129x3 + x205x145x3 + x205x294x3 
<= 1
x73x20x3 + x73x238x3 + x73x77x3 + x73x185x3 + x73x154x3 + x73x125x3 + x73x60x3 + x73x225x3 + x73x150x3 + x73x15x3 + x73x128x3 + x73x129x3 + x73x145x3 + x73x294x3 
<= 1
x181x20x3 + x181x238x3 + x181x77x3 + x181x185x3 + x181x154x3 + x181x125x3 + x181x60x3 + x181x225x3 + x181x150x3 + x181x15x3 + x181x128x3 + x181x129x3 + x181x145x3 + x181x294x3 
<= 1
x239x145x3 + x239x294x3 
<= 2
x2x209x3 + x2x185x3 + x2x154x3 + x2x125x3 + x2x60x3 + x2x225x3 + x2x150x3 + x2x15x3 + x2x128x3 + x2x129x3 + x2x145x3 + x2x294x3 
<= 2

x114x20x2 + x58x20x2 + x16x20x2 
- x20x0x2
- x20x238x2 - x20x186x2 - x20x295x2 - x20x128x2 - x20x129x2 
= 0
x73x20x3 + x181x20x3 
- x20x0x3
- x20x238x3 - x20x77x3 - x20x185x3 - x20x150x3 - x20x15x3 - x20x128x3 - x20x129x3 - x20x145x3 - x20x294x3 
= 0

x80x269x1 
- x269x0x1
- x269x209x1 - x269x196x1 - x269x154x1 - x269x125x1 - x269x78x1 - x269x268x1 - x269x295x1 - x269x230x1 - x269x15x1 - x269x117x1 - x269x145x1 - x269x7x1 
= 0




x114x238x2 + x58x238x2 + x16x238x2 + x20x238x2 
- x238x0x2
- x238x186x2 - x238x295x2 - x238x128x2 - x238x129x2 
= 0
x73x238x3 + x181x238x3 + x20x238x3 
- x238x0x3
- x238x77x3 - x238x185x3 - x238x150x3 - x238x15x3 - x238x128x3 - x238x129x3 - x238x145x3 - x238x294x3 
= 0

x73x77x1 + x181x77x1 
- x77x0x1
- x77x295x1 - x77x230x1 - x77x15x1 - x77x145x1 - x77x7x1 
= 0

x73x77x3 + x181x77x3 + x20x77x3 + x238x77x3 
- x77x0x3
- x77x15x3 - x77x128x3 - x77x129x3 - x77x145x3 - x77x294x3 
= 0

x80x209x1 + x269x209x1 
- x209x0x1
- x209x196x1 - x209x154x1 - x209x125x1 - x209x78x1 - x209x268x1 - x209x117x1 - x209x7x1 
= 0

x205x209x3 + x2x209x3 
- x209x0x3
- x209x154x3 - x209x125x3 - x209x60x3 - x209x225x3 
= 0


x114x287x2 + x58x287x2 + x16x287x2 + x30x287x2 + x80x287x2 + x48x287x2 
- x287x0x2
- x287x60x2 
= 0


x73x196x1 + x181x196x1 + x80x196x1 + x269x196x1 + x209x196x1 
- x196x0x1
- x196x154x1 - x196x125x1 - x196x78x1 - x196x268x1 - x196x117x1 
= 0





x205x185x3 + x73x185x3 + x181x185x3 + x2x185x3 + x20x185x3 + x238x185x3 
- x185x0x3
- x185x15x3 - x185x128x3 - x185x129x3 - x185x145x3 - x185x294x3 
= 0

x73x154x1 + x181x154x1 + x80x154x1 + x269x154x1 + x209x154x1 + x196x154x1 
- x154x0x1
- x154x78x1 - x154x268x1 - x154x117x1 
= 0

x205x154x3 + x73x154x3 + x181x154x3 + x2x154x3 + x209x154x3 
- x154x0x3
- x154x60x3 - x154x225x3 
= 0

x73x125x1 + x181x125x1 + x80x125x1 + x269x125x1 + x209x125x1 + x196x125x1 
- x125x0x1
- x125x117x1 
= 0

x205x125x3 + x73x125x3 + x181x125x3 + x2x125x3 + x209x125x3 
- x125x0x3

= 0


x114x60x2 + x58x60x2 + x16x60x2 + x30x60x2 + x80x60x2 + x48x60x2 + x287x60x2 
- x60x0x2

= 0
x205x60x3 + x73x60x3 + x181x60x3 + x2x60x3 + x209x60x3 + x154x60x3 
- x60x0x3

= 0

x73x78x1 + x181x78x1 + x80x78x1 + x269x78x1 + x209x78x1 + x196x78x1 + x154x78x1 
- x78x0x1
- x78x268x1 - x78x117x1 
= 0





x205x225x3 + x73x225x3 + x181x225x3 + x2x225x3 + x209x225x3 + x154x225x3 
- x225x0x3

= 0



x205x150x3 + x73x150x3 + x181x150x3 + x2x150x3 + x20x150x3 + x238x150x3 
- x150x0x3
- x150x15x3 
= 0

x73x268x1 + x181x268x1 + x80x268x1 + x269x268x1 + x209x268x1 + x196x268x1 + x154x268x1 + x78x268x1 
- x268x0x1
- x268x117x1 
= 0




x114x186x2 + x58x186x2 + x16x186x2 + x30x186x2 + x80x186x2 + x48x186x2 + x20x186x2 + x238x186x2 
- x186x0x2
- x186x128x2 - x186x129x2 
= 0


x73x295x1 + x181x295x1 + x80x295x1 + x269x295x1 + x77x295x1 
- x295x0x1
- x295x230x1 - x295x15x1 - x295x7x1 
= 0
x114x295x2 + x58x295x2 + x16x295x2 + x30x295x2 + x80x295x2 + x48x295x2 + x20x295x2 + x238x295x2 
- x295x0x2

= 0


x73x230x1 + x181x230x1 + x80x230x1 + x269x230x1 + x77x230x1 + x295x230x1 
- x230x0x1
- x230x15x1 - x230x7x1 
= 0



x73x15x1 + x181x15x1 + x80x15x1 + x269x15x1 + x77x15x1 + x295x15x1 + x230x15x1 
- x15x0x1
- x15x7x1 
= 0

x205x15x3 + x73x15x3 + x181x15x3 + x2x15x3 + x20x15x3 + x238x15x3 + x77x15x3 + x185x15x3 + x150x15x3 
- x15x0x3

= 0


x114x128x2 + x58x128x2 + x16x128x2 + x30x128x2 + x80x128x2 + x48x128x2 + x20x128x2 + x238x128x2 + x186x128x2 
- x128x0x2
- x128x129x2 
= 0
x205x128x3 + x73x128x3 + x181x128x3 + x2x128x3 + x20x128x3 + x238x128x3 + x77x128x3 + x185x128x3 
- x128x0x3
- x128x129x3 - x128x145x3 - x128x294x3 
= 0

x73x117x1 + x181x117x1 + x80x117x1 + x269x117x1 + x209x117x1 + x196x117x1 + x154x117x1 + x125x117x1 + x78x117x1 + x268x117x1 
- x117x0x1

= 0




x114x129x2 + x58x129x2 + x16x129x2 + x30x129x2 + x80x129x2 + x48x129x2 + x20x129x2 + x238x129x2 + x186x129x2 + x128x129x2 
- x129x0x2

= 0
x205x129x3 + x73x129x3 + x181x129x3 + x2x129x3 + x20x129x3 + x238x129x3 + x77x129x3 + x185x129x3 + x128x129x3 
- x129x0x3
- x129x145x3 - x129x294x3 
= 0

x73x145x1 + x181x145x1 + x80x145x1 + x269x145x1 + x77x145x1 
- x145x0x1

= 0

x205x145x3 + x73x145x3 + x181x145x3 + x239x145x3 + x2x145x3 + x20x145x3 + x238x145x3 + x77x145x3 + x185x145x3 + x128x145x3 + x129x145x3 
- x145x0x3
- x145x294x3 
= 0



x205x294x3 + x73x294x3 + x181x294x3 + x239x294x3 + x2x294x3 + x20x294x3 + x238x294x3 + x77x294x3 + x185x294x3 + x128x294x3 + x129x294x3 + x145x294x3 
- x294x0x3

= 0

x73x7x1 + x181x7x1 + x80x7x1 + x269x7x1 + x77x7x1 + x209x7x1 + x295x7x1 + x230x7x1 + x15x7x1 
- x7x0x1

= 0



1y20 - x114x20x2 - x58x20x2 - x16x20x2 = 0
1y20 - x73x20x3 - x181x20x3 = 0
2y269 - x80x269x1 = 0
1y238 - x114x238x2 - x58x238x2 - x16x238x2 - x20x238x2 = 0
1y238 - x73x238x3 - x181x238x3 - x20x238x3 = 0
1y77 - x73x77x1 - x181x77x1 = 0
1y77 - x73x77x3 - x181x77x3 - x20x77x3 - x238x77x3 = 0
1y209 - x80x209x1 - x269x209x1 = 0
1y209 - x205x209x3 - x2x209x3 = 0
2y287 - x114x287x2 - x58x287x2 - x16x287x2 - x30x287x2 - x80x287x2 - x48x287x2 = 0
2y196 - x73x196x1 - x181x196x1 - x80x196x1 - x269x196x1 - x209x196x1 = 0
2y185 - x205x185x3 - x73x185x3 - x181x185x3 - x2x185x3 - x20x185x3 - x238x185x3 = 0
1y154 - x73x154x1 - x181x154x1 - x80x154x1 - x269x154x1 - x209x154x1 - x196x154x1 = 0
1y154 - x205x154x3 - x73x154x3 - x181x154x3 - x2x154x3 - x209x154x3 = 0
1y125 - x73x125x1 - x181x125x1 - x80x125x1 - x269x125x1 - x209x125x1 - x196x125x1 = 0
1y125 - x205x125x3 - x73x125x3 - x181x125x3 - x2x125x3 - x209x125x3 = 0
1y60 - x114x60x2 - x58x60x2 - x16x60x2 - x30x60x2 - x80x60x2 - x48x60x2 - x287x60x2 = 0
1y60 - x205x60x3 - x73x60x3 - x181x60x3 - x2x60x3 - x209x60x3 - x154x60x3 = 0
2y78 - x73x78x1 - x181x78x1 - x80x78x1 - x269x78x1 - x209x78x1 - x196x78x1 - x154x78x1 = 0
2y225 - x205x225x3 - x73x225x3 - x181x225x3 - x2x225x3 - x209x225x3 - x154x225x3 = 0
2y150 - x205x150x3 - x73x150x3 - x181x150x3 - x2x150x3 - x20x150x3 - x238x150x3 = 0
2y268 - x73x268x1 - x181x268x1 - x80x268x1 - x269x268x1 - x209x268x1 - x196x268x1 - x154x268x1 - x78x268x1 = 0
2y186 - x114x186x2 - x58x186x2 - x16x186x2 - x30x186x2 - x80x186x2 - x48x186x2 - x20x186x2 - x238x186x2 = 0
1y295 - x73x295x1 - x181x295x1 - x80x295x1 - x269x295x1 - x77x295x1 = 0
1y295 - x114x295x2 - x58x295x2 - x16x295x2 - x30x295x2 - x80x295x2 - x48x295x2 - x20x295x2 - x238x295x2 = 0
2y230 - x73x230x1 - x181x230x1 - x80x230x1 - x269x230x1 - x77x230x1 - x295x230x1 = 0
1y15 - x73x15x1 - x181x15x1 - x80x15x1 - x269x15x1 - x77x15x1 - x295x15x1 - x230x15x1 = 0
1y15 - x205x15x3 - x73x15x3 - x181x15x3 - x2x15x3 - x20x15x3 - x238x15x3 - x77x15x3 - x185x15x3 - x150x15x3 = 0
1y128 - x114x128x2 - x58x128x2 - x16x128x2 - x30x128x2 - x80x128x2 - x48x128x2 - x20x128x2 - x238x128x2 - x186x128x2 = 0
1y128 - x205x128x3 - x73x128x3 - x181x128x3 - x2x128x3 - x20x128x3 - x238x128x3 - x77x128x3 - x185x128x3 = 0
2y117 - x73x117x1 - x181x117x1 - x80x117x1 - x269x117x1 - x209x117x1 - x196x117x1 - x154x117x1 - x125x117x1 - x78x117x1 - x268x117x1 = 0
1y129 - x114x129x2 - x58x129x2 - x16x129x2 - x30x129x2 - x80x129x2 - x48x129x2 - x20x129x2 - x238x129x2 - x186x129x2 - x128x129x2 = 0
1y129 - x205x129x3 - x73x129x3 - x181x129x3 - x2x129x3 - x20x129x3 - x238x129x3 - x77x129x3 - x185x129x3 - x128x129x3 = 0
1y145 - x73x145x1 - x181x145x1 - x80x145x1 - x269x145x1 - x77x145x1 = 0
1y145 - x205x145x3 - x73x145x3 - x181x145x3 - x239x145x3 - x2x145x3 - x20x145x3 - x238x145x3 - x77x145x3 - x185x145x3 - x128x145x3 - x129x145x3 = 0
2y294 - x205x294x3 - x73x294x3 - x181x294x3 - x239x294x3 - x2x294x3 - x20x294x3 - x238x294x3 - x77x294x3 - x185x294x3 - x128x294x3 - x129x294x3 - x145x294x3 = 0
2y7 - x73x7x1 - x181x7x1 - x80x7x1 - x269x7x1 - x77x7x1 - x209x7x1 - x295x7x1 - x230x7x1 - x15x7x1 = 0

s114 - s20 + 7.407158z114z20z2 <= 6.00
s114 - s238 + 7.422742z114z238z2 <= 6.00
s114 - s287 + 7.778060z114z287z2 <= 6.00
s114 - s60 + 7.766551z114z60z2 <= 6.00
s114 - s186 + 7.560793z114z186z2 <= 6.00
s114 - s295 + 7.685241z114z295z2 <= 6.00
s114 - s128 + 7.569834z114z128z2 <= 6.00
s114 - s129 + 7.561466z114z129z2 <= 6.00
s58 - s20 + 7.430245z58z20z2 <= 6.00
s58 - s238 + 7.445621z58z238z2 <= 6.00
s58 - s287 + 7.787118z58z287z2 <= 6.00
s58 - s60 + 7.774539z58z60z2 <= 6.00
s58 - s186 + 7.582142z58z186z2 <= 6.00
s58 - s295 + 7.704146z58z295z2 <= 6.00
s58 - s128 + 7.591232z58z128z2 <= 6.00
s58 - s129 + 7.583095z58z129z2 <= 6.00
s16 - s20 + 8.162086z16z20z2 <= 6.89
s16 - s238 + 8.172336z16z238z2 <= 6.89
s16 - s287 + 8.496834z16z287z2 <= 6.89
s16 - s60 + 8.489200z16z60z2 <= 6.89
s16 - s186 + 8.286311z16z186z2 <= 6.89
s16 - s295 + 8.396346z16z295z2 <= 6.89
s16 - s128 + 8.295674z16z128z2 <= 6.89
s16 - s129 + 8.289585z16z129z2 <= 6.89
s205 - s209 + 8.630407z205z209z3 <= 7.48
s205 - s185 + 8.816584z205z185z3 <= 7.48
s205 - s154 + 8.642344z205z154z3 <= 7.48
s205 - s125 + 8.680998z205z125z3 <= 7.48
s205 - s60 + 8.638465z205z60z3 <= 7.48
s205 - s225 + 8.664391z205z225z3 <= 7.48
s205 - s150 + 8.808295z205z150z3 <= 7.48
s205 - s15 + 8.839567z205z15z3 <= 7.48
s205 - s128 + 8.903740z205z128z3 <= 7.48
s205 - s129 + 8.913334z205z129z3 <= 7.48
s205 - s145 + 8.923221z205z145z3 <= 7.48
s205 - s294 + 8.919798z205z294z3 <= 7.48
s73 - s20 + 8.535901z73z20z3 <= 7.50
s73 - s238 + 8.554975z73z238z3 <= 7.50
s73 - s77 + 8.578032z73z77z1 <= 7.50
s73 - s77 + 8.578032z73z77z3 <= 7.50
s73 - s196 + 9.137251z73z196z1 <= 7.50
s73 - s185 + 8.863929z73z185z3 <= 7.50
s73 - s154 + 9.141388z73z154z1 <= 7.50
s73 - s154 + 9.141388z73z154z3 <= 7.50
s73 - s125 + 9.154896z73z125z1 <= 7.50
s73 - s125 + 9.154896z73z125z3 <= 7.50
s73 - s60 + 9.141179z73z60z3 <= 7.50
s73 - s78 + 9.146255z73z78z1 <= 7.50
s73 - s225 + 9.152245z73z225z3 <= 7.50
s73 - s150 + 8.954997z73z150z3 <= 7.50
s73 - s268 + 9.151153z73z268z1 <= 7.50
s73 - s295 + 8.875470z73z295z1 <= 7.50
s73 - s230 + 8.854338z73z230z1 <= 7.50
s73 - s15 + 8.881459z73z15z1 <= 7.50
s73 - s15 + 8.881459z73z15z3 <= 7.50
s73 - s128 + 8.721610z73z128z3 <= 7.50
s73 - s117 + 9.180457z73z117z1 <= 7.50
s73 - s129 + 8.709337z73z129z3 <= 7.50
s73 - s145 + 8.697428z73z145z1 <= 7.50
s73 - s145 + 8.697428z73z145z3 <= 7.50
s73 - s294 + 8.710502z73z294z3 <= 7.50
s73 - s7 + 8.914192z73z7z1 <= 7.50
s181 - s20 + 8.524037z181z20z3 <= 7.50
s181 - s238 + 8.538873z181z238z3 <= 7.50
s181 - s77 + 8.562893z181z77z1 <= 7.50
s181 - s77 + 8.562893z181z77z3 <= 7.50
s181 - s196 + 9.117990z181z196z1 <= 7.50
s181 - s185 + 8.843187z181z185z3 <= 7.50
s181 - s154 + 9.122326z181z154z1 <= 7.50
s181 - s154 + 9.122326z181z154z3 <= 7.50
s181 - s125 + 9.135120z181z125z1 <= 7.50
s181 - s125 + 9.135120z181z125z3 <= 7.50
s181 - s60 + 9.122253z181z60z3 <= 7.50
s181 - s78 + 9.127128z181z78z1 <= 7.50
s181 - s225 + 9.132807z181z225z3 <= 7.50
s181 - s150 + 8.934102z181z150z3 <= 7.50
s181 - s268 + 9.131964z181z268z1 <= 7.50
s181 - s295 + 8.854902z181z295z1 <= 7.50
s181 - s230 + 8.833933z181z230z1 <= 7.50
s181 - s15 + 8.860987z181z15z1 <= 7.50
s181 - s15 + 8.860987z181z15z3 <= 7.50
s181 - s128 + 8.702759z181z128z3 <= 7.50
s181 - s117 + 9.161043z181z117z1 <= 7.50
s181 - s129 + 8.690905z181z129z3 <= 7.50
s181 - s145 + 8.679505z181z145z1 <= 7.50
s181 - s145 + 8.679505z181z145z3 <= 7.50
s181 - s294 + 8.692411z181z294z3 <= 7.50
s181 - s7 + 8.893842z181z7z1 <= 7.50
s30 - s287 + 8.670406z30z287z2 <= 7.52
s30 - s60 + 8.663139z30z60z2 <= 7.52
s30 - s186 + 8.937613z30z186z2 <= 7.52
s30 - s295 + 8.862345z30z295z2 <= 7.52
s30 - s128 + 8.942163z30z128z2 <= 7.52
s30 - s129 + 8.952307z30z129z2 <= 7.52
s239 - s145 + 9.376016z239z145z3 <= 8.19
s239 - s294 + 9.389052z239z294z3 <= 8.19
s80 - s269 + 8.594975z80z269z1 <= 7.54
s80 - s209 + 8.675974z80z209z1 <= 7.54
s80 - s287 + 8.694633z80z287z2 <= 7.54
s80 - s196 + 8.690407z80z196z1 <= 7.54
s80 - s154 + 8.687572z80z154z1 <= 7.54
s80 - s125 + 8.727142z80z125z1 <= 7.54
s80 - s60 + 8.683604z80z60z2 <= 7.54
s80 - s78 + 8.693912z80z78z1 <= 7.54
s80 - s268 + 8.700277z80z268z1 <= 7.54
s80 - s186 + 8.968590z80z186z2 <= 7.54
s80 - s295 + 8.896401z80z295z1 <= 7.54
s80 - s295 + 8.896401z80z295z2 <= 7.54
s80 - s230 + 8.907635z80z230z1 <= 7.54
s80 - s15 + 8.903929z80z15z1 <= 7.54
s80 - s128 + 8.973333z80z128z2 <= 7.54
s80 - s117 + 8.734137z80z117z1 <= 7.54
s80 - s129 + 8.983220z80z129z2 <= 7.54
s80 - s145 + 8.993382z80z145z1 <= 7.54
s80 - s7 + 8.916770z80z7z1 <= 7.54
s2 - s209 + 8.769080z2z209z3 <= 7.63
s2 - s185 + 8.976625z2z185z3 <= 7.63
s2 - s154 + 8.779682z2z154z3 <= 7.63
s2 - s125 + 8.821107z2z125z3 <= 7.63
s2 - s60 + 8.775232z2z60z3 <= 7.63
s2 - s225 + 8.803032z2z225z3 <= 7.63
s2 - s150 + 8.965627z2z150z3 <= 7.63
s2 - s15 + 8.999202z2z15z3 <= 7.63
s2 - s128 + 9.065887z2z128z3 <= 7.63
s2 - s129 + 9.075567z2z129z3 <= 7.63
s2 - s145 + 9.085528z2z145z3 <= 7.63
s2 - s294 + 9.082021z2z294z3 <= 7.63
s48 - s287 + 8.746667z48z287z2 <= 7.58
s48 - s60 + 8.730407z48z60z2 <= 7.58
s48 - s186 + 9.024722z48z186z2 <= 7.58
s48 - s295 + 8.958124z48z295z2 <= 7.58
s48 - s128 + 9.029790z48z128z2 <= 7.58
s48 - s129 + 9.039227z48z129z2 <= 7.58
s20 - s238 + 9.730000z20z238z2 <= 8.71
s20 - s238 + 9.730000z20z238z3 <= 8.71
s20 - s77 + 9.752164z20z77z3 <= 8.71
s20 - s185 + 10.043400z20z185z3 <= 8.71
s20 - s150 + 10.135258z20z150z3 <= 8.71
s20 - s186 + 9.890123z20z186z2 <= 8.71
s20 - s295 + 10.054157z20z295z2 <= 8.71
s20 - s15 + 10.059793z20z15z3 <= 8.71
s20 - s128 + 9.897142z20z128z2 <= 8.71
s20 - s128 + 9.897142z20z128z3 <= 8.71
s20 - s129 + 9.884483z20z129z2 <= 8.71
s20 - s129 + 9.884483z20z129z3 <= 8.71
s20 - s145 + 9.872207z20z145z3 <= 8.71
s20 - s294 + 9.885372z20z294z3 <= 8.71
s269 - s209 + 9.889071z269z209z1 <= 8.74
s269 - s196 + 9.901245z269z196z1 <= 8.74
s269 - s154 + 9.893478z269z154z1 <= 8.74
s269 - s125 + 9.943960z269z125z1 <= 8.74
s269 - s78 + 9.900139z269z78z1 <= 8.74
s269 - s268 + 9.906799z269z268z1 <= 8.74
s269 - s295 + 10.151069z269z295z1 <= 8.74
s269 - s230 + 10.161901z269z230z1 <= 8.74
s269 - s15 + 10.158675z269z15z1 <= 8.74
s269 - s117 + 9.940000z269z117z1 <= 8.74
s269 - s145 + 10.241242z269z145z1 <= 8.74
s269 - s7 + 10.171741z269z7z1 <= 8.74
s238 - s77 + 9.794038z238z77z3 <= 8.77
s238 - s185 + 10.083830z238z185z3 <= 8.77
s238 - s150 + 10.175846z238z150z3 <= 8.77
s238 - s186 + 9.930140z238z186z2 <= 8.77
s238 - s295 + 10.094415z238z295z2 <= 8.77
s238 - s15 + 10.099983z238z15z3 <= 8.77
s238 - s128 + 9.937200z238z128z2 <= 8.77
s238 - s128 + 9.937200z238z128z3 <= 8.77
s238 - s129 + 9.924633z238z129z2 <= 8.77
s238 - s129 + 9.924633z238z129z3 <= 8.77
s238 - s145 + 9.912518z238z145z3 <= 8.77
s238 - s294 + 9.925635z238z294z3 <= 8.77
s77 - s295 + 10.247318z77z295z1 <= 8.94
s77 - s230 + 10.225034z77z230z1 <= 8.94
s77 - s15 + 10.252481z77z15z1 <= 8.94
s77 - s15 + 10.252481z77z15z3 <= 8.94
s77 - s128 + 10.086666z77z128z3 <= 8.94
s77 - s129 + 10.073500z77z129z3 <= 8.94
s77 - s145 + 10.060738z77z145z1 <= 8.94
s77 - s145 + 10.060738z77z145z3 <= 8.94
s77 - s294 + 10.073997z77z294z3 <= 8.94
s77 - s7 + 10.284157z77z7z1 <= 8.94
s209 - s196 + 10.084907z209z196z1 <= 9.07
s209 - s154 + 10.091082z209z154z1 <= 9.07
s209 - s154 + 10.091082z209z154z3 <= 9.07
s209 - s125 + 10.124974z209z125z1 <= 9.07
s209 - s125 + 10.124974z209z125z3 <= 9.07
s209 - s60 + 10.096666z209z60z3 <= 9.07
s209 - s78 + 10.094037z209z78z1 <= 9.07
s209 - s225 + 10.103993z209z225z3 <= 9.07
s209 - s268 + 10.098284z209z268z1 <= 9.07
s209 - s117 + 10.129628z209z117z1 <= 9.07
s209 - s7 + 10.466092z209z7z1 <= 9.07
s287 - s60 + 10.148872z287z60z2 <= 9.11
s196 - s154 + 10.154907z196z154z1 <= 9.14
s196 - s125 + 10.184722z196z125z1 <= 9.14
s196 - s78 + 10.153334z196z78z1 <= 9.14
s196 - s268 + 10.154907z196z268z1 <= 9.14
s196 - s117 + 10.184722z196z117z1 <= 9.14
s185 - s15 + 10.178284z185z15z3 <= 9.15
s185 - s128 + 10.311245z185z128z3 <= 9.15
s185 - s129 + 10.326131z185z129z3 <= 9.15
s185 - s145 + 10.341021z185z145z3 <= 9.15
s185 - s294 + 10.329505z185z294z3 <= 9.15
s154 - s60 + 10.189428z154z60z3 <= 9.18
s154 - s78 + 10.186666z154z78z1 <= 9.18
s154 - s225 + 10.209814z154z225z3 <= 9.18
s154 - s268 + 10.193334z154z268z1 <= 9.18
s154 - s117 + 10.227140z154z117z1 <= 9.18
s125 - s117 + 10.230000z125z117z1 <= 9.19
s78 - s268 + 10.206667z78z268z1 <= 9.20
s78 - s117 + 10.240552z78z117z1 <= 9.20
s150 - s15 + 10.305375z150z15z3 <= 9.22
s268 - s117 + 10.263993z268z117z1 <= 9.23
s186 - s128 + 10.289428z186z128z2 <= 9.28
s186 - s129 + 10.294907z186z129z2 <= 9.28
s295 - s230 + 10.304037z295z230z1 <= 9.28
s295 - s15 + 10.289428z295z15z1 <= 9.28
s295 - s7 + 10.322164z295z7z1 <= 9.28
s230 - s15 + 10.337488z230z15z1 <= 9.31
s230 - s7 + 10.370001z230z7z1 <= 9.31
s15 - s7 + 10.383994z15z7z1 <= 9.35
s128 - s129 + 10.364907z128z129z2 <= 9.35
s128 - s129 + 10.364907z128z129z3 <= 9.35
s128 - s145 + 10.379814z128z145z3 <= 9.35
s128 - s294 + 10.368856z128z294z3 <= 9.35
s129 - s145 + 10.394907z129z145z3 <= 9.38
s129 - s294 + 10.386667z129z294z3 <= 9.38
s145 - s294 + 10.413333z145z294z3 <= 9.40

x114x20x2 - 1z114z20z2 <= 0
x114x238x2 - 1z114z238z2 <= 0
x114x287x2 - 2z114z287z2 <= 0
x114x60x2 - 1z114z60z2 <= 0
x114x186x2 - 2z114z186z2 <= 0
x114x295x2 - 1z114z295z2 <= 0
x114x128x2 - 1z114z128z2 <= 0
x114x129x2 - 1z114z129z2 <= 0
x58x20x2 - 1z58z20z2 <= 0
x58x238x2 - 1z58z238z2 <= 0
x58x287x2 - 2z58z287z2 <= 0
x58x60x2 - 1z58z60z2 <= 0
x58x186x2 - 2z58z186z2 <= 0
x58x295x2 - 1z58z295z2 <= 0
x58x128x2 - 1z58z128z2 <= 0
x58x129x2 - 1z58z129z2 <= 0
x16x20x2 - 1z16z20z2 <= 0
x16x238x2 - 1z16z238z2 <= 0
x16x287x2 - 2z16z287z2 <= 0
x16x60x2 - 1z16z60z2 <= 0
x16x186x2 - 2z16z186z2 <= 0
x16x295x2 - 1z16z295z2 <= 0
x16x128x2 - 1z16z128z2 <= 0
x16x129x2 - 1z16z129z2 <= 0
x205x209x3 - 1z205z209z3 <= 0
x205x185x3 - 2z205z185z3 <= 0
x205x154x3 - 1z205z154z3 <= 0
x205x125x3 - 1z205z125z3 <= 0
x205x60x3 - 1z205z60z3 <= 0
x205x225x3 - 2z205z225z3 <= 0
x205x150x3 - 2z205z150z3 <= 0
x205x15x3 - 1z205z15z3 <= 0
x205x128x3 - 1z205z128z3 <= 0
x205x129x3 - 1z205z129z3 <= 0
x205x145x3 - 1z205z145z3 <= 0
x205x294x3 - 2z205z294z3 <= 0
x73x20x3 - 1z73z20z3 <= 0
x73x238x3 - 1z73z238z3 <= 0
x73x77x1 - 1z73z77z1 <= 0
x73x77x3 - 1z73z77z3 <= 0
x73x196x1 - 2z73z196z1 <= 0
x73x185x3 - 2z73z185z3 <= 0
x73x154x1 - 1z73z154z1 <= 0
x73x154x3 - 1z73z154z3 <= 0
x73x125x1 - 1z73z125z1 <= 0
x73x125x3 - 1z73z125z3 <= 0
x73x60x3 - 1z73z60z3 <= 0
x73x78x1 - 2z73z78z1 <= 0
x73x225x3 - 2z73z225z3 <= 0
x73x150x3 - 2z73z150z3 <= 0
x73x268x1 - 2z73z268z1 <= 0
x73x295x1 - 1z73z295z1 <= 0
x73x230x1 - 2z73z230z1 <= 0
x73x15x1 - 1z73z15z1 <= 0
x73x15x3 - 1z73z15z3 <= 0
x73x128x3 - 1z73z128z3 <= 0
x73x117x1 - 2z73z117z1 <= 0
x73x129x3 - 1z73z129z3 <= 0
x73x145x1 - 1z73z145z1 <= 0
x73x145x3 - 1z73z145z3 <= 0
x73x294x3 - 2z73z294z3 <= 0
x73x7x1 - 2z73z7z1 <= 0
x181x20x3 - 1z181z20z3 <= 0
x181x238x3 - 1z181z238z3 <= 0
x181x77x1 - 1z181z77z1 <= 0
x181x77x3 - 1z181z77z3 <= 0
x181x196x1 - 2z181z196z1 <= 0
x181x185x3 - 2z181z185z3 <= 0
x181x154x1 - 1z181z154z1 <= 0
x181x154x3 - 1z181z154z3 <= 0
x181x125x1 - 1z181z125z1 <= 0
x181x125x3 - 1z181z125z3 <= 0
x181x60x3 - 1z181z60z3 <= 0
x181x78x1 - 2z181z78z1 <= 0
x181x225x3 - 2z181z225z3 <= 0
x181x150x3 - 2z181z150z3 <= 0
x181x268x1 - 2z181z268z1 <= 0
x181x295x1 - 1z181z295z1 <= 0
x181x230x1 - 2z181z230z1 <= 0
x181x15x1 - 1z181z15z1 <= 0
x181x15x3 - 1z181z15z3 <= 0
x181x128x3 - 1z181z128z3 <= 0
x181x117x1 - 2z181z117z1 <= 0
x181x129x3 - 1z181z129z3 <= 0
x181x145x1 - 1z181z145z1 <= 0
x181x145x3 - 1z181z145z3 <= 0
x181x294x3 - 2z181z294z3 <= 0
x181x7x1 - 2z181z7z1 <= 0
x30x287x2 - 2z30z287z2 <= 0
x30x60x2 - 1z30z60z2 <= 0
x30x186x2 - 2z30z186z2 <= 0
x30x295x2 - 1z30z295z2 <= 0
x30x128x2 - 1z30z128z2 <= 0
x30x129x2 - 1z30z129z2 <= 0
x239x145x3 - 1z239z145z3 <= 0
x239x294x3 - 2z239z294z3 <= 0
x80x269x1 - 2z80z269z1 <= 0
x80x209x1 - 1z80z209z1 <= 0
x80x287x2 - 2z80z287z2 <= 0
x80x196x1 - 2z80z196z1 <= 0
x80x154x1 - 1z80z154z1 <= 0
x80x125x1 - 1z80z125z1 <= 0
x80x60x2 - 1z80z60z2 <= 0
x80x78x1 - 2z80z78z1 <= 0
x80x268x1 - 2z80z268z1 <= 0
x80x186x2 - 2z80z186z2 <= 0
x80x295x1 - 1z80z295z1 <= 0
x80x295x2 - 1z80z295z2 <= 0
x80x230x1 - 2z80z230z1 <= 0
x80x15x1 - 1z80z15z1 <= 0
x80x128x2 - 1z80z128z2 <= 0
x80x117x1 - 2z80z117z1 <= 0
x80x129x2 - 1z80z129z2 <= 0
x80x145x1 - 1z80z145z1 <= 0
x80x7x1 - 2z80z7z1 <= 0
x2x209x3 - 1z2z209z3 <= 0
x2x185x3 - 2z2z185z3 <= 0
x2x154x3 - 1z2z154z3 <= 0
x2x125x3 - 1z2z125z3 <= 0
x2x60x3 - 1z2z60z3 <= 0
x2x225x3 - 2z2z225z3 <= 0
x2x150x3 - 2z2z150z3 <= 0
x2x15x3 - 1z2z15z3 <= 0
x2x128x3 - 1z2z128z3 <= 0
x2x129x3 - 1z2z129z3 <= 0
x2x145x3 - 1z2z145z3 <= 0
x2x294x3 - 2z2z294z3 <= 0
x48x287x2 - 2z48z287z2 <= 0
x48x60x2 - 1z48z60z2 <= 0
x48x186x2 - 2z48z186z2 <= 0
x48x295x2 - 1z48z295z2 <= 0
x48x128x2 - 1z48z128z2 <= 0
x48x129x2 - 1z48z129z2 <= 0
x20x238x2 - 1z20z238z2 <= 0
x20x238x3 - 1z20z238z3 <= 0
x20x77x3 - 1z20z77z3 <= 0
x20x185x3 - 2z20z185z3 <= 0
x20x150x3 - 2z20z150z3 <= 0
x20x186x2 - 2z20z186z2 <= 0
x20x295x2 - 1z20z295z2 <= 0
x20x15x3 - 1z20z15z3 <= 0
x20x128x2 - 1z20z128z2 <= 0
x20x128x3 - 1z20z128z3 <= 0
x20x129x2 - 1z20z129z2 <= 0
x20x129x3 - 1z20z129z3 <= 0
x20x145x3 - 1z20z145z3 <= 0
x20x294x3 - 2z20z294z3 <= 0
x20x0x2 <= 1
x20x0x3 <= 1
x269x209x1 - 1z269z209z1 <= 0
x269x196x1 - 2z269z196z1 <= 0
x269x154x1 - 1z269z154z1 <= 0
x269x125x1 - 1z269z125z1 <= 0
x269x78x1 - 2z269z78z1 <= 0
x269x268x1 - 2z269z268z1 <= 0
x269x295x1 - 1z269z295z1 <= 0
x269x230x1 - 2z269z230z1 <= 0
x269x15x1 - 1z269z15z1 <= 0
x269x117x1 - 2z269z117z1 <= 0
x269x145x1 - 1z269z145z1 <= 0
x269x7x1 - 2z269z7z1 <= 0
x269x0x1 <= 2
x238x77x3 - 1z238z77z3 <= 0
x238x185x3 - 2z238z185z3 <= 0
x238x150x3 - 2z238z150z3 <= 0
x238x186x2 - 2z238z186z2 <= 0
x238x295x2 - 1z238z295z2 <= 0
x238x15x3 - 1z238z15z3 <= 0
x238x128x2 - 1z238z128z2 <= 0
x238x128x3 - 1z238z128z3 <= 0
x238x129x2 - 1z238z129z2 <= 0
x238x129x3 - 1z238z129z3 <= 0
x238x145x3 - 1z238z145z3 <= 0
x238x294x3 - 2z238z294z3 <= 0
x238x0x2 <= 1
x238x0x3 <= 1
x77x295x1 - 1z77z295z1 <= 0
x77x230x1 - 2z77z230z1 <= 0
x77x15x1 - 1z77z15z1 <= 0
x77x15x3 - 1z77z15z3 <= 0
x77x128x3 - 1z77z128z3 <= 0
x77x129x3 - 1z77z129z3 <= 0
x77x145x1 - 1z77z145z1 <= 0
x77x145x3 - 1z77z145z3 <= 0
x77x294x3 - 2z77z294z3 <= 0
x77x7x1 - 2z77z7z1 <= 0
x77x0x1 <= 1
x77x0x3 <= 1
x209x196x1 - 2z209z196z1 <= 0
x209x154x1 - 1z209z154z1 <= 0
x209x154x3 - 1z209z154z3 <= 0
x209x125x1 - 1z209z125z1 <= 0
x209x125x3 - 1z209z125z3 <= 0
x209x60x3 - 1z209z60z3 <= 0
x209x78x1 - 2z209z78z1 <= 0
x209x225x3 - 2z209z225z3 <= 0
x209x268x1 - 2z209z268z1 <= 0
x209x117x1 - 2z209z117z1 <= 0
x209x7x1 - 2z209z7z1 <= 0
x209x0x1 <= 1
x209x0x3 <= 1
x287x60x2 - 1z287z60z2 <= 0
x287x0x2 <= 2
x196x154x1 - 1z196z154z1 <= 0
x196x125x1 - 1z196z125z1 <= 0
x196x78x1 - 2z196z78z1 <= 0
x196x268x1 - 2z196z268z1 <= 0
x196x117x1 - 2z196z117z1 <= 0
x196x0x1 <= 2
x185x15x3 - 1z185z15z3 <= 0
x185x128x3 - 1z185z128z3 <= 0
x185x129x3 - 1z185z129z3 <= 0
x185x145x3 - 1z185z145z3 <= 0
x185x294x3 - 2z185z294z3 <= 0
x185x0x3 <= 2
x154x60x3 - 1z154z60z3 <= 0
x154x78x1 - 2z154z78z1 <= 0
x154x225x3 - 2z154z225z3 <= 0
x154x268x1 - 2z154z268z1 <= 0
x154x117x1 - 2z154z117z1 <= 0
x154x0x1 <= 1
x154x0x3 <= 1
x125x117x1 - 2z125z117z1 <= 0
x125x0x1 <= 1
x125x0x3 <= 1
x60x0x2 <= 1
x60x0x3 <= 1
x78x268x1 - 2z78z268z1 <= 0
x78x117x1 - 2z78z117z1 <= 0
x78x0x1 <= 2
x225x0x3 <= 2
x150x15x3 - 1z150z15z3 <= 0
x150x0x3 <= 2
x268x117x1 - 2z268z117z1 <= 0
x268x0x1 <= 2
x186x128x2 - 1z186z128z2 <= 0
x186x129x2 - 1z186z129z2 <= 0
x186x0x2 <= 2
x295x230x1 - 2z295z230z1 <= 0
x295x15x1 - 1z295z15z1 <= 0
x295x7x1 - 2z295z7z1 <= 0
x295x0x1 <= 1
x295x0x2 <= 1
x230x15x1 - 1z230z15z1 <= 0
x230x7x1 - 2z230z7z1 <= 0
x230x0x1 <= 2
x15x7x1 - 2z15z7z1 <= 0
x15x0x1 <= 1
x15x0x3 <= 1
x128x129x2 - 1z128z129z2 <= 0
x128x129x3 - 1z128z129z3 <= 0
x128x145x3 - 1z128z145z3 <= 0
x128x294x3 - 2z128z294z3 <= 0
x128x0x2 <= 1
x128x0x3 <= 1
x117x0x1 <= 2
x129x145x3 - 1z129z145z3 <= 0
x129x294x3 - 2z129z294z3 <= 0
x129x0x2 <= 1
x129x0x3 <= 1
x145x294x3 - 2z145z294z3 <= 0
x145x0x1 <= 1
x145x0x3 <= 1
x294x0x3 <= 2
x7x0x1 <= 2

s20 - 6.00z114z20z2 >= 0
s20 - 6.00z58z20z2 >= 0
s20 - 6.00z16z20z2 >= 0
s20 - 6.00z73z20z3 >= 0
s20 - 6.00z181z20z3 >= 0
s269 - 6.00z80z269z1 >= 0
s238 - 6.00z114z238z2 >= 0
s238 - 6.00z58z238z2 >= 0
s238 - 6.00z16z238z2 >= 0
s238 - 6.00z73z238z3 >= 0
s238 - 6.00z181z238z3 >= 0
s238 - 6.00z20z238z2 >= 0
s238 - 6.00z20z238z3 >= 0
s77 - 6.00z73z77z1 >= 0
s77 - 6.00z73z77z3 >= 0
s77 - 6.00z181z77z1 >= 0
s77 - 6.00z181z77z3 >= 0
s77 - 6.00z20z77z3 >= 0
s77 - 6.00z238z77z3 >= 0
s209 - 6.00z205z209z3 >= 0
s209 - 6.00z80z209z1 >= 0
s209 - 6.00z2z209z3 >= 0
s209 - 6.00z269z209z1 >= 0
s287 - 6.00z114z287z2 >= 0
s287 - 6.00z58z287z2 >= 0
s287 - 6.00z16z287z2 >= 0
s287 - 6.00z30z287z2 >= 0
s287 - 6.00z80z287z2 >= 0
s287 - 6.00z48z287z2 >= 0
s196 - 6.00z73z196z1 >= 0
s196 - 6.00z181z196z1 >= 0
s196 - 6.00z80z196z1 >= 0
s196 - 6.00z269z196z1 >= 0
s196 - 6.00z209z196z1 >= 0
s185 - 6.00z205z185z3 >= 0
s185 - 6.00z73z185z3 >= 0
s185 - 6.00z181z185z3 >= 0
s185 - 6.00z2z185z3 >= 0
s185 - 6.00z20z185z3 >= 0
s185 - 6.00z238z185z3 >= 0
s154 - 6.00z205z154z3 >= 0
s154 - 6.00z73z154z1 >= 0
s154 - 6.00z73z154z3 >= 0
s154 - 6.00z181z154z1 >= 0
s154 - 6.00z181z154z3 >= 0
s154 - 6.00z80z154z1 >= 0
s154 - 6.00z2z154z3 >= 0
s154 - 6.00z269z154z1 >= 0
s154 - 6.00z209z154z1 >= 0
s154 - 6.00z209z154z3 >= 0
s154 - 6.00z196z154z1 >= 0
s125 - 6.00z205z125z3 >= 0
s125 - 6.00z73z125z1 >= 0
s125 - 6.00z73z125z3 >= 0
s125 - 6.00z181z125z1 >= 0
s125 - 6.00z181z125z3 >= 0
s125 - 6.00z80z125z1 >= 0
s125 - 6.00z2z125z3 >= 0
s125 - 6.00z269z125z1 >= 0
s125 - 6.00z209z125z1 >= 0
s125 - 6.00z209z125z3 >= 0
s125 - 6.00z196z125z1 >= 0
s60 - 6.00z114z60z2 >= 0
s60 - 6.00z58z60z2 >= 0
s60 - 6.00z16z60z2 >= 0
s60 - 6.00z205z60z3 >= 0
s60 - 6.00z73z60z3 >= 0
s60 - 6.00z181z60z3 >= 0
s60 - 6.00z30z60z2 >= 0
s60 - 6.00z80z60z2 >= 0
s60 - 6.00z2z60z3 >= 0
s60 - 6.00z48z60z2 >= 0
s60 - 6.00z209z60z3 >= 0
s60 - 6.00z287z60z2 >= 0
s60 - 6.00z154z60z3 >= 0
s78 - 6.00z73z78z1 >= 0
s78 - 6.00z181z78z1 >= 0
s78 - 6.00z80z78z1 >= 0
s78 - 6.00z269z78z1 >= 0
s78 - 6.00z209z78z1 >= 0
s78 - 6.00z196z78z1 >= 0
s78 - 6.00z154z78z1 >= 0
s225 - 6.00z205z225z3 >= 0
s225 - 6.00z73z225z3 >= 0
s225 - 6.00z181z225z3 >= 0
s225 - 6.00z2z225z3 >= 0
s225 - 6.00z209z225z3 >= 0
s225 - 6.00z154z225z3 >= 0
s150 - 6.00z205z150z3 >= 0
s150 - 6.00z73z150z3 >= 0
s150 - 6.00z181z150z3 >= 0
s150 - 6.00z2z150z3 >= 0
s150 - 6.00z20z150z3 >= 0
s150 - 6.00z238z150z3 >= 0
s268 - 6.00z73z268z1 >= 0
s268 - 6.00z181z268z1 >= 0
s268 - 6.00z80z268z1 >= 0
s268 - 6.00z269z268z1 >= 0
s268 - 6.00z209z268z1 >= 0
s268 - 6.00z196z268z1 >= 0
s268 - 6.00z154z268z1 >= 0
s268 - 6.00z78z268z1 >= 0
s186 - 6.00z114z186z2 >= 0
s186 - 6.00z58z186z2 >= 0
s186 - 6.00z16z186z2 >= 0
s186 - 6.00z30z186z2 >= 0
s186 - 6.00z80z186z2 >= 0
s186 - 6.00z48z186z2 >= 0
s186 - 6.00z20z186z2 >= 0
s186 - 6.00z238z186z2 >= 0
s295 - 6.00z114z295z2 >= 0
s295 - 6.00z58z295z2 >= 0
s295 - 6.00z16z295z2 >= 0
s295 - 6.00z73z295z1 >= 0
s295 - 6.00z181z295z1 >= 0
s295 - 6.00z30z295z2 >= 0
s295 - 6.00z80z295z1 >= 0
s295 - 6.00z80z295z2 >= 0
s295 - 6.00z48z295z2 >= 0
s295 - 6.00z20z295z2 >= 0
s295 - 6.00z269z295z1 >= 0
s295 - 6.00z238z295z2 >= 0
s295 - 6.00z77z295z1 >= 0
s230 - 6.00z73z230z1 >= 0
s230 - 6.00z181z230z1 >= 0
s230 - 6.00z80z230z1 >= 0
s230 - 6.00z269z230z1 >= 0
s230 - 6.00z77z230z1 >= 0
s230 - 6.00z295z230z1 >= 0
s15 - 6.00z205z15z3 >= 0
s15 - 6.00z73z15z1 >= 0
s15 - 6.00z73z15z3 >= 0
s15 - 6.00z181z15z1 >= 0
s15 - 6.00z181z15z3 >= 0
s15 - 6.00z80z15z1 >= 0
s15 - 6.00z2z15z3 >= 0
s15 - 6.00z20z15z3 >= 0
s15 - 6.00z269z15z1 >= 0
s15 - 6.00z238z15z3 >= 0
s15 - 6.00z77z15z1 >= 0
s15 - 6.00z77z15z3 >= 0
s15 - 6.00z185z15z3 >= 0
s15 - 6.00z150z15z3 >= 0
s15 - 6.00z295z15z1 >= 0
s15 - 6.00z230z15z1 >= 0
s128 - 6.00z114z128z2 >= 0
s128 - 6.00z58z128z2 >= 0
s128 - 6.00z16z128z2 >= 0
s128 - 6.00z205z128z3 >= 0
s128 - 6.00z73z128z3 >= 0
s128 - 6.00z181z128z3 >= 0
s128 - 6.00z30z128z2 >= 0
s128 - 6.00z80z128z2 >= 0
s128 - 6.00z2z128z3 >= 0
s128 - 6.00z48z128z2 >= 0
s128 - 6.00z20z128z2 >= 0
s128 - 6.00z20z128z3 >= 0
s128 - 6.00z238z128z2 >= 0
s128 - 6.00z238z128z3 >= 0
s128 - 6.00z77z128z3 >= 0
s128 - 6.00z185z128z3 >= 0
s128 - 6.00z186z128z2 >= 0
s117 - 6.00z73z117z1 >= 0
s117 - 6.00z181z117z1 >= 0
s117 - 6.00z80z117z1 >= 0
s117 - 6.00z269z117z1 >= 0
s117 - 6.00z209z117z1 >= 0
s117 - 6.00z196z117z1 >= 0
s117 - 6.00z154z117z1 >= 0
s117 - 6.00z125z117z1 >= 0
s117 - 6.00z78z117z1 >= 0
s117 - 6.00z268z117z1 >= 0
s129 - 6.00z114z129z2 >= 0
s129 - 6.00z58z129z2 >= 0
s129 - 6.00z16z129z2 >= 0
s129 - 6.00z205z129z3 >= 0
s129 - 6.00z73z129z3 >= 0
s129 - 6.00z181z129z3 >= 0
s129 - 6.00z30z129z2 >= 0
s129 - 6.00z80z129z2 >= 0
s129 - 6.00z2z129z3 >= 0
s129 - 6.00z48z129z2 >= 0
s129 - 6.00z20z129z2 >= 0
s129 - 6.00z20z129z3 >= 0
s129 - 6.00z238z129z2 >= 0
s129 - 6.00z238z129z3 >= 0
s129 - 6.00z77z129z3 >= 0
s129 - 6.00z185z129z3 >= 0
s129 - 6.00z186z129z2 >= 0
s129 - 6.00z128z129z2 >= 0
s129 - 6.00z128z129z3 >= 0
s145 - 6.00z205z145z3 >= 0
s145 - 6.00z73z145z1 >= 0
s145 - 6.00z73z145z3 >= 0
s145 - 6.00z181z145z1 >= 0
s145 - 6.00z181z145z3 >= 0
s145 - 6.00z239z145z3 >= 0
s145 - 6.00z80z145z1 >= 0
s145 - 6.00z2z145z3 >= 0
s145 - 6.00z20z145z3 >= 0
s145 - 6.00z269z145z1 >= 0
s145 - 6.00z238z145z3 >= 0
s145 - 6.00z77z145z1 >= 0
s145 - 6.00z77z145z3 >= 0
s145 - 6.00z185z145z3 >= 0
s145 - 6.00z128z145z3 >= 0
s145 - 6.00z129z145z3 >= 0
s294 - 6.00z205z294z3 >= 0
s294 - 6.00z73z294z3 >= 0
s294 - 6.00z181z294z3 >= 0
s294 - 6.00z239z294z3 >= 0
s294 - 6.00z2z294z3 >= 0
s294 - 6.00z20z294z3 >= 0
s294 - 6.00z238z294z3 >= 0
s294 - 6.00z77z294z3 >= 0
s294 - 6.00z185z294z3 >= 0
s294 - 6.00z128z294z3 >= 0
s294 - 6.00z129z294z3 >= 0
s294 - 6.00z145z294z3 >= 0
s7 - 6.00z73z7z1 >= 0
s7 - 6.00z181z7z1 >= 0
s7 - 6.00z80z7z1 >= 0
s7 - 6.00z269z7z1 >= 0
s7 - 6.00z77z7z1 >= 0
s7 - 6.00z209z7z1 >= 0
s7 - 6.00z295z7z1 >= 0
s7 - 6.00z230z7z1 >= 0
s7 - 6.00z15z7z1 >= 0

Bounds
s114 = 6.000000
s58 = 6.000000
s16 = 6.887535
s205 = 7.480000
s73 = 7.500000
s181 = 7.500000
s177 = 8.414038
s30 = 7.520000
s239 = 8.191625
s80 = 7.540000
s2 = 7.627659
s55 = 8.506666
s48 = 7.580000
s229 = 8.500552
s64 = 8.439862
7.710000 <= s20 <= 8.710000
7.740000 <= s269 <= 8.740000
7.770000 <= s238 <= 8.770000
7.940000 <= s77 <= 8.940000
8.070000 <= s209 <= 9.070000
8.110000 <= s287 <= 9.110000
8.140000 <= s196 <= 9.140000
8.150000 <= s185 <= 9.150000
8.180000 <= s154 <= 9.180000
8.190000 <= s125 <= 9.190000
8.200000 <= s60 <= 9.200000
8.200000 <= s78 <= 9.200000
8.210000 <= s225 <= 9.210000
8.220000 <= s150 <= 9.220000
8.230000 <= s268 <= 9.230000
8.280000 <= s186 <= 9.280000
8.280000 <= s295 <= 9.280000
8.310000 <= s230 <= 9.310000
8.350000 <= s15 <= 9.350000
8.350000 <= s128 <= 9.350000
8.360000 <= s117 <= 9.360000
8.380000 <= s129 <= 9.380000
8.400000 <= s145 <= 9.400000
8.440000 <= s294 <= 9.440000
8.490000 <= s7 <= 9.490000

General
x114x20x2 x114x238x2 x114x287x2 x114x60x2 x114x186x2 x114x295x2 x114x128x2 x114x129x2 
x58x20x2 x58x238x2 x58x287x2 x58x60x2 x58x186x2 x58x295x2 x58x128x2 x58x129x2 
x16x20x2 x16x238x2 x16x287x2 x16x60x2 x16x186x2 x16x295x2 x16x128x2 x16x129x2 
x205x209x3 x205x185x3 x205x154x3 x205x125x3 x205x60x3 x205x225x3 x205x150x3 x205x15x3 x205x128x3 x205x129x3 x205x145x3 x205x294x3 
x73x20x3 x73x238x3 x73x77x1 x73x77x3 x73x196x1 x73x185x3 x73x154x1 x73x154x3 x73x125x1 x73x125x3 x73x60x3 x73x78x1 x73x225x3 x73x150x3 x73x268x1 x73x295x1 x73x230x1 x73x15x1 x73x15x3 x73x128x3 x73x117x1 x73x129x3 x73x145x1 x73x145x3 x73x294x3 x73x7x1 
x181x20x3 x181x238x3 x181x77x1 x181x77x3 x181x196x1 x181x185x3 x181x154x1 x181x154x3 x181x125x1 x181x125x3 x181x60x3 x181x78x1 x181x225x3 x181x150x3 x181x268x1 x181x295x1 x181x230x1 x181x15x1 x181x15x3 x181x128x3 x181x117x1 x181x129x3 x181x145x1 x181x145x3 x181x294x3 x181x7x1 

x30x287x2 x30x60x2 x30x186x2 x30x295x2 x30x128x2 x30x129x2 
x239x145x3 x239x294x3 
x80x269x1 x80x209x1 x80x287x2 x80x196x1 x80x154x1 x80x125x1 x80x60x2 x80x78x1 x80x268x1 x80x186x2 x80x295x1 x80x295x2 x80x230x1 x80x15x1 x80x128x2 x80x117x1 x80x129x2 x80x145x1 x80x7x1 
x2x209x3 x2x185x3 x2x154x3 x2x125x3 x2x60x3 x2x225x3 x2x150x3 x2x15x3 x2x128x3 x2x129x3 x2x145x3 x2x294x3 

x48x287x2 x48x60x2 x48x186x2 x48x295x2 x48x128x2 x48x129x2 


x20x238x2 x20x238x3 x20x77x3 x20x185x3 x20x150x3 x20x186x2 x20x295x2 x20x15x3 x20x128x2 x20x128x3 x20x129x2 x20x129x3 x20x145x3 x20x294x3 x20x0x2 x20x0x3 
x269x209x1 x269x196x1 x269x154x1 x269x125x1 x269x78x1 x269x268x1 x269x295x1 x269x230x1 x269x15x1 x269x117x1 x269x145x1 x269x7x1 x269x0x1 
x238x77x3 x238x185x3 x238x150x3 x238x186x2 x238x295x2 x238x15x3 x238x128x2 x238x128x3 x238x129x2 x238x129x3 x238x145x3 x238x294x3 x238x0x2 x238x0x3 
x77x295x1 x77x230x1 x77x15x1 x77x15x3 x77x128x3 x77x129x3 x77x145x1 x77x145x3 x77x294x3 x77x7x1 x77x0x1 x77x0x3 
x209x196x1 x209x154x1 x209x154x3 x209x125x1 x209x125x3 x209x60x3 x209x78x1 x209x225x3 x209x268x1 x209x117x1 x209x7x1 x209x0x1 x209x0x3 
x287x60x2 x287x0x2 
x196x154x1 x196x125x1 x196x78x1 x196x268x1 x196x117x1 x196x0x1 
x185x15x3 x185x128x3 x185x129x3 x185x145x3 x185x294x3 x185x0x3 
x154x60x3 x154x78x1 x154x225x3 x154x268x1 x154x117x1 x154x0x1 x154x0x3 
x125x117x1 x125x0x1 x125x0x3 
x60x0x2 x60x0x3 
x78x268x1 x78x117x1 x78x0x1 
x225x0x3 
x150x15x3 x150x0x3 
x268x117x1 x268x0x1 
x186x128x2 x186x129x2 x186x0x2 
x295x230x1 x295x15x1 x295x7x1 x295x0x1 x295x0x2 
x230x15x1 x230x7x1 x230x0x1 
x15x7x1 x15x0x1 x15x0x3 
x128x129x2 x128x129x3 x128x145x3 x128x294x3 x128x0x2 x128x0x3 
x117x0x1 
x129x145x3 x129x294x3 x129x0x2 x129x0x3 
x145x294x3 x145x0x1 x145x0x3 
x294x0x3 
x7x0x1 

Binaries
y20 y269 y238 y77 y209 y287 y196 y185 y154 y125 y60 y78 y225 y150 y268 y186 y295 y230 y15 y128 y117 y129 y145 y294 y7 
z114z20z2 z114z238z2 z114z287z2 z114z60z2 z114z186z2 z114z295z2 z114z128z2 z114z129z2 
z58z20z2 z58z238z2 z58z287z2 z58z60z2 z58z186z2 z58z295z2 z58z128z2 z58z129z2 
z16z20z2 z16z238z2 z16z287z2 z16z60z2 z16z186z2 z16z295z2 z16z128z2 z16z129z2 
z205z209z3 z205z185z3 z205z154z3 z205z125z3 z205z60z3 z205z225z3 z205z150z3 z205z15z3 z205z128z3 z205z129z3 z205z145z3 z205z294z3 
z73z20z3 z73z238z3 z73z77z1 z73z77z3 z73z196z1 z73z185z3 z73z154z1 z73z154z3 z73z125z1 z73z125z3 z73z60z3 z73z78z1 z73z225z3 z73z150z3 z73z268z1 z73z295z1 z73z230z1 z73z15z1 z73z15z3 z73z128z3 z73z117z1 z73z129z3 z73z145z1 z73z145z3 z73z294z3 z73z7z1 
z181z20z3 z181z238z3 z181z77z1 z181z77z3 z181z196z1 z181z185z3 z181z154z1 z181z154z3 z181z125z1 z181z125z3 z181z60z3 z181z78z1 z181z225z3 z181z150z3 z181z268z1 z181z295z1 z181z230z1 z181z15z1 z181z15z3 z181z128z3 z181z117z1 z181z129z3 z181z145z1 z181z145z3 z181z294z3 z181z7z1 

z30z287z2 z30z60z2 z30z186z2 z30z295z2 z30z128z2 z30z129z2 
z239z145z3 z239z294z3 
z80z269z1 z80z209z1 z80z287z2 z80z196z1 z80z154z1 z80z125z1 z80z60z2 z80z78z1 z80z268z1 z80z186z2 z80z295z1 z80z295z2 z80z230z1 z80z15z1 z80z128z2 z80z117z1 z80z129z2 z80z145z1 z80z7z1 
z2z209z3 z2z185z3 z2z154z3 z2z125z3 z2z60z3 z2z225z3 z2z150z3 z2z15z3 z2z128z3 z2z129z3 z2z145z3 z2z294z3 

z48z287z2 z48z60z2 z48z186z2 z48z295z2 z48z128z2 z48z129z2 


z20z238z2 z20z238z3 z20z77z3 z20z185z3 z20z150z3 z20z186z2 z20z295z2 z20z15z3 z20z128z2 z20z128z3 z20z129z2 z20z129z3 z20z145z3 z20z294z3 
z269z209z1 z269z196z1 z269z154z1 z269z125z1 z269z78z1 z269z268z1 z269z295z1 z269z230z1 z269z15z1 z269z117z1 z269z145z1 z269z7z1 
z238z77z3 z238z185z3 z238z150z3 z238z186z2 z238z295z2 z238z15z3 z238z128z2 z238z128z3 z238z129z2 z238z129z3 z238z145z3 z238z294z3 
z77z295z1 z77z230z1 z77z15z1 z77z15z3 z77z128z3 z77z129z3 z77z145z1 z77z145z3 z77z294z3 z77z7z1 
z209z196z1 z209z154z1 z209z154z3 z209z125z1 z209z125z3 z209z60z3 z209z78z1 z209z225z3 z209z268z1 z209z117z1 z209z7z1 
z287z60z2 
z196z154z1 z196z125z1 z196z78z1 z196z268z1 z196z117z1 
z185z15z3 z185z128z3 z185z129z3 z185z145z3 z185z294z3 
z154z60z3 z154z78z1 z154z225z3 z154z268z1 z154z117z1 
z125z117z1 

z78z268z1 z78z117z1 

z150z15z3 
z268z117z1 
z186z128z2 z186z129z2 
z295z230z1 z295z15z1 z295z7z1 
z230z15z1 z230z7z1 
z15z7z1 
z128z129z2 z128z129z3 z128z145z3 z128z294z3 

z129z145z3 z129z294z3 
z145z294z3 



End